Route #1: 41 56 4 12 24 40 26 34
Route #2: 5 61 36 48 28 65 57 16
Route #3: 2 32 7 33 30 54 51 39 20 64
Route #4: 27 58 50 23 3
Route #5: 8 44 67 14 47 66
Route #6: 6 15 63 55 31 45 10 49 46 13
Route #7: 22 17 60 35 52 62 21 53 9
Route #8: 43 37 29 19 25 11 59 68
Route #9: 38 42 18
cost 1433
